15
1 4
2 2
3 5
4 7
5 3
6 9
7 6
8 10
9 4
10 1
11 1
12 4
13 3
14 1
45
0 1 50
1 0 50
0 2 64
2 0 64
0 3 2
3 0 2
0 4 99
4 0 99
0 5 76
5 0 76
0 6 35
6 0 35
0 7 35
7 0 35
0 8 20
8 0 20
0 9 94
9 0 94
0 10 68
10 0 68
0 11 86
11 0 86
0 12 93
12 0 93
0 13 38
13 0 38
0 14 33
14 0 33
1 11 13
1 12 69
1 13 11
1 14 77
2 4 10
2 11 54
3 8 46
5 10 85
5 11 66
5 12 66
6 9 43
6 12 59
7 8 36
8 9 32
8 14 73
11 13 77
11 14 40
